c clasp version 2.1.1
c Reading from pb_400_01.cnf
c Solving...
s UNKNOWN

c TIME LIMIT    : 1
c Models        : 0+    
c Time          : 18000.000s (Solving: 17997.29s 1st Model: 0.00s Unsat: 0.00s)
c CPU Time      : 17971.310s
c Choices       : 72078516
c Conflicts     : 36322061
c Restarts      : 41264  (Average: 880.24 Last: 36320824)

c Variables     : 638054 (Eliminated: 202341 Frozen:    0)
c Constraints   : 825744 (Binary: 63.1% Ternary: 36.2% Other:  0.7%)
c Lemmas        : 36322061 (Binary:  0.0% Ternary:  0.0% Other:100.0%)
c   Conflict    : 36322061 (Average Length: 103.4) 
c   Loop        : 0      (Average Length: 0.0) 
c   Other       : 0      (Average Length: 0.0)
c   Deleted     : 36216588
